108654
0,9,28,63,72,44,45,53,12,17,20,70,65,35,25,79,61,69,13,75,66,19,8,76,16,57,73,31,39,81,43,21,4,18,47,23,30,67,58,74,34,29,1,37,15,10,32,26,6,55,50,71,80,59,46,48,33,56,42,2,11,22,54,41,24,68,77,14,60,5,78,27,7,82,52,62,38,40,51,3,49,64,36,0